7 19 40 97 55 18 98 46 96 57 86 3 9 21 54 60 43 62 90 2 48 49 35 79 77 42 83 4 61 38 24 32 76 33 56 58 74 15 67 68 14 37 50 81 53 72 1 91 31 87 44 8 36 30 99 85 82 6 47 65 29 20 78 10 5 28 89 17 16 26 0 23 69 25 11 59 93 12 51 95 52 71 27 41 63 92 22 64 80 34 75 84 73 66 39 94 70 13 45 88 

